30 4
20 74 88 53 71 73 80 77 65 52 60 28 60 24 83 94 73 91 51 18 59 58 57 54 96 71 61 63 108 11
16 57 90 64 61 65 68 83 94 45 76 30 61 18 92 86 74 107 72 25 52 66 39 64 105 67 52 73 108 35
21 51 93 65 63 84 62 82 94 39 68 26 55 39 81 99 77 95 58 39 68 86 33 78 89 64 59 72 88 37
24 63 96 57 62 84 71 81 91 48 64 25 46 18 90 91 91 101 69 29 60 82 40 71 99 62 69 60 109 8
